(set-info :smt-lib-version 2.6)
(set-logic QF_BV)
(set-info :source |
Benchmarks generated by the Calysto static checker.  Provided by Domagoj
Babic.  See http://www.cs.ubc.ca/~babic/index_benchmarks.htm.  Translated using
Spear Sf2Smt translator.

|)
(set-info :category "industrial")
(set-info :status sat)
(declare-fun v23200516 () (_ BitVec 64))
(declare-fun o20455116 () (_ BitVec 1))
(declare-fun v24296320 () (_ BitVec 64))
(declare-fun o23803940 () (_ BitVec 1))
(declare-fun o20163504 () (_ BitVec 32))
(declare-fun o21423032 () (_ BitVec 1))
(declare-fun v23834188 () (_ BitVec 32))
(declare-fun v22666712 () (_ BitVec 64))
(declare-fun o21318956 () (_ BitVec 1))
(declare-fun v21322956 () (_ BitVec 32))
(declare-fun o24354956 () (_ BitVec 1))
(declare-fun o21340260 () (_ BitVec 32))
(declare-fun o24250052 () (_ BitVec 32))
(declare-fun o21334192 () (_ BitVec 1))
(declare-fun o23596520 () (_ BitVec 32))
(declare-fun o23845624 () (_ BitVec 32))
(declare-fun o22143988 () (_ BitVec 1))
(declare-fun v22285684 () (_ BitVec 64))
(declare-fun o17168448 () (_ BitVec 1))
(declare-fun v19953500 () (_ BitVec 32))
(declare-fun v22058424 () (_ BitVec 64))
(declare-fun o20505232 () (_ BitVec 1))
(declare-fun v20837012 () (_ BitVec 32))
(declare-fun v22983260 () (_ BitVec 64))
(declare-fun o23036032 () (_ BitVec 1))
(declare-fun o20674472 () (_ BitVec 32))
(declare-fun o20674500 () (_ BitVec 32))
(declare-fun o19911180 () (_ BitVec 1))
(declare-fun v24214652 () (_ BitVec 32))
(declare-fun o22552664 () (_ BitVec 1))
(declare-fun v23067252 () (_ BitVec 32))
(declare-fun o21918908 () (_ BitVec 32))
(declare-fun o20379284 () (_ BitVec 32))
(declare-fun o22106604 () (_ BitVec 32))
(declare-fun o21053560 () (_ BitVec 1))
(declare-fun v20848168 () (_ BitVec 64))
(declare-fun o22668392 () (_ BitVec 1))
(declare-fun v21981048 () (_ BitVec 64))
(declare-fun o23138544 () (_ BitVec 1))
(declare-fun v23462672 () (_ BitVec 32))
(declare-fun o22790528 () (_ BitVec 1))
(declare-fun o23208848 () (_ BitVec 32))
(declare-fun o23208876 () (_ BitVec 32))
(declare-fun o20277876 () (_ BitVec 1))
(declare-fun o20853980 () (_ BitVec 1))
(declare-fun o20854016 () (_ BitVec 1))
(declare-fun o23518988 () (_ BitVec 1))
(declare-fun o20123672 () (_ BitVec 1))
(declare-fun o20123708 () (_ BitVec 1))
(declare-fun o20882208 () (_ BitVec 1))
(declare-fun o23302080 () (_ BitVec 1))
(declare-fun o21981012 () (_ BitVec 1))
(declare-fun o22553628 () (_ BitVec 1))
(declare-fun o21441808 () (_ BitVec 1))
(declare-fun o22553664 () (_ BitVec 1))
(declare-fun o21223552 () (_ BitVec 1))
(declare-fun o23083716 () (_ BitVec 1))
(declare-fun v19948520 () (_ BitVec 32))
(declare-fun o21132036 () (_ BitVec 1))
(declare-fun v20577344 () (_ BitVec 32))
(declare-fun o20185132 () (_ BitVec 1))
(declare-fun o20185176 () (_ BitVec 1))
(declare-fun v23031068 () (_ BitVec 32))
(declare-fun o19174276 () (_ BitVec 1))
(declare-fun o20033884 () (_ BitVec 1))
(declare-fun o23079448 () (_ BitVec 1))
(declare-fun o23079484 () (_ BitVec 1))
(declare-fun v22988276 () (_ BitVec 32))
(declare-fun o22360324 () (_ BitVec 1))
(declare-fun o22360368 () (_ BitVec 8))
(declare-fun o21249696 () (_ BitVec 1))
(declare-fun o21249724 () (_ BitVec 1))
(declare-fun o19996588 () (_ BitVec 1))
(declare-fun v23012700 () (_ BitVec 32))
(declare-fun v22686296 () (_ BitVec 32))
(declare-fun o22259444 () (_ BitVec 1))
(declare-fun o19594344 () (_ BitVec 32))
(declare-fun o19594380 () (_ BitVec 32))
(declare-fun o21270652 () (_ BitVec 32))
(declare-fun o21270696 () (_ BitVec 1))
(declare-fun o20518752 () (_ BitVec 1))
(declare-fun v23701016 () (_ BitVec 64))
(declare-fun o20210588 () (_ BitVec 1))
(declare-fun v23736016 () (_ BitVec 64))
(declare-fun o23295188 () (_ BitVec 1))
(declare-fun v24215300 () (_ BitVec 32))
(declare-fun v23855288 () (_ BitVec 64))
(declare-fun o21225436 () (_ BitVec 1))
(declare-fun o23861964 () (_ BitVec 32))
(declare-fun o21441192 () (_ BitVec 32))
(declare-fun o22106952 () (_ BitVec 1))
(declare-fun v30925832 () (_ BitVec 1))
(declare-fun o21438056 () (_ BitVec 64))
(declare-fun o22345884 () (_ BitVec 1))
(declare-fun o22940872 () (_ BitVec 1))
(declare-fun o22468824 () (_ BitVec 1))
(declare-fun o21223452 () (_ BitVec 1))
(declare-fun o22167356 () (_ BitVec 1))
(declare-fun o21436264 () (_ BitVec 1))
(declare-fun o22092048 () (_ BitVec 1))
(declare-fun o21440072 () (_ BitVec 1))
(declare-fun o22673292 () (_ BitVec 1))
(declare-fun v23833788 () (_ BitVec 32))
(declare-fun o22180784 () (_ BitVec 1))
(declare-fun o20034852 () (_ BitVec 1))
(declare-fun o30059208 () (_ BitVec 1))
(declare-fun o21434244 () (_ BitVec 1))
(declare-fun o21228100 () (_ BitVec 1))
(declare-fun o33634652 () (_ BitVec 1))
(declare-fun o22056024 () (_ BitVec 1))
(declare-fun o30198808 () (_ BitVec 1))
(declare-fun o30230328 () (_ BitVec 1))
(declare-fun o25889176 () (_ BitVec 1))
(declare-fun v24228872 () (_ BitVec 32))
(declare-fun o21223820 () (_ BitVec 1))
(declare-fun o24094932 () (_ BitVec 1))
(declare-fun o22291156 () (_ BitVec 1))
(declare-fun o27419284 () (_ BitVec 1))
(declare-fun o28478640 () (_ BitVec 1))
(declare-fun o22224628 () (_ BitVec 1))
(declare-fun o31390820 () (_ BitVec 1))
(declare-fun o23119084 () (_ BitVec 1))
(declare-fun o30017548 () (_ BitVec 1))
(declare-fun o30033688 () (_ BitVec 1))
(declare-fun o29914216 () (_ BitVec 1))
(declare-fun o24685204 () (_ BitVec 1))
(declare-fun o22016100 () (_ BitVec 1))
(declare-fun o23960484 () (_ BitVec 1))
(declare-fun v20573752 () (_ BitVec 64))
(declare-fun v24498092 () (_ BitVec 64))
(declare-fun o24390756 () (_ BitVec 1))
(declare-fun o26295080 () (_ BitVec 1))
(declare-fun v22150540 () (_ BitVec 64))
(declare-fun o20349076 () (_ BitVec 1))
(declare-fun o23158364 () (_ BitVec 1))
(declare-fun o22045960 () (_ BitVec 1))
(declare-fun o22998024 () (_ BitVec 1))
(declare-fun o20154296 () (_ BitVec 1))
(declare-fun o21924240 () (_ BitVec 1))
(declare-fun o24354996 () (_ BitVec 1))
(declare-fun o23513732 () (_ BitVec 1))
(declare-fun o22158304 () (_ BitVec 1))
(declare-fun o24466592 () (_ BitVec 1))
(declare-fun o24072084 () (_ BitVec 1))
(declare-fun o22088212 () (_ BitVec 1))
(declare-fun o24251796 () (_ BitVec 1))
(declare-fun o27231772 () (_ BitVec 1))
(declare-fun o23777404 () (_ BitVec 1))
(declare-fun o23507756 () (_ BitVec 1))
(declare-fun o31144592 () (_ BitVec 1))
(declare-fun o25071028 () (_ BitVec 1))
(declare-fun o23452484 () (_ BitVec 1))
(declare-fun o26204256 () (_ BitVec 1))
(declare-fun o29714144 () (_ BitVec 1))
(declare-fun v22252560 () (_ BitVec 32))
(declare-fun o22718708 () (_ BitVec 64))
(declare-fun o24494348 () (_ BitVec 64))
(declare-fun o21336804 () (_ BitVec 64))
(declare-fun o21908568 () (_ BitVec 64))
(declare-fun o23048432 () (_ BitVec 1))
(declare-fun o24685164 () (_ BitVec 1))
(declare-fun v19958036 () (_ BitVec 64))
(declare-fun v23043816 () (_ BitVec 8))
(declare-fun o24634804 () (_ BitVec 8))
(declare-fun o22340028 () (_ BitVec 64))
(declare-fun o25191416 () (_ BitVec 64))
(declare-fun o24833884 () (_ BitVec 64))
(declare-fun v21541048 () (_ BitVec 64))
(declare-fun v23805616 () (_ BitVec 32))
(declare-fun v22561692 () (_ BitVec 8))
(declare-fun o22561732 () (_ BitVec 8))
(declare-fun o22051184 () (_ BitVec 32))
(declare-fun o21055548 () (_ BitVec 32))
(declare-fun o21055568 () (_ BitVec 32))
(declare-fun o20849404 () (_ BitVec 64))
(declare-fun o21545504 () (_ BitVec 64))
(declare-fun o25184428 () (_ BitVec 64))
(declare-fun o25114320 () (_ BitVec 1))
(declare-fun o24937932 () (_ BitVec 1))
(declare-fun v29276184 () (_ BitVec 64))
(declare-fun v29275800 () (_ BitVec 8))
(declare-fun o24307912 () (_ BitVec 8))
(declare-fun o21220980 () (_ BitVec 64))
(declare-fun o27254992 () (_ BitVec 64))
(declare-fun o22637652 () (_ BitVec 64))
(declare-fun o23337704 () (_ BitVec 1))
(declare-fun o22643092 () (_ BitVec 1))
(declare-fun v23859780 () (_ BitVec 32))
(declare-fun o23859920 () (_ BitVec 8))
(declare-fun v23859640 () (_ BitVec 8))
(declare-fun o23999884 () (_ BitVec 8))
(declare-fun o23859956 () (_ BitVec 8))
(declare-fun o23861468 () (_ BitVec 8))
(declare-fun o31312000 () (_ BitVec 1))
(declare-fun o20037236 () (_ BitVec 64))
(declare-fun v30351624 () (_ BitVec 64))
(declare-fun v30624364 () (_ BitVec 8))
(declare-fun o24148392 () (_ BitVec 8))
(declare-fun o29482872 () (_ BitVec 64))
(declare-fun o30235128 () (_ BitVec 64))
(declare-fun o27813500 () (_ BitVec 64))
(declare-fun o20402920 () (_ BitVec 64))
(declare-fun v24205336 () (_ BitVec 32))
(declare-fun v21233384 () (_ BitVec 8))
(declare-fun o20918492 () (_ BitVec 8))
(declare-fun o20506492 () (_ BitVec 32))
(declare-fun o17040112 () (_ BitVec 32))
(declare-fun o19617944 () (_ BitVec 32))
(declare-fun o22653056 () (_ BitVec 64))
(declare-fun o29060648 () (_ BitVec 1))
(declare-fun o26739328 () (_ BitVec 1))
(declare-fun o27171108 () (_ BitVec 1))
(declare-fun v34826148 () (_ BitVec 1))
(declare-fun v21170972 () (_ BitVec 32))
(declare-fun o21436080 () (_ BitVec 1))
(declare-fun o25321656 () (_ BitVec 1))
(declare-fun o23125384 () (_ BitVec 1))
(declare-fun o24152204 () (_ BitVec 1))
(declare-fun v29302328 () (_ BitVec 32))
(declare-fun v29660432 () (_ BitVec 32))
(declare-fun o22661048 () (_ BitVec 32))
(declare-fun o25152128 () (_ BitVec 32))
(declare-fun o25152060 () (_ BitVec 32))
(declare-fun o25152032 () (_ BitVec 1))
(declare-fun o20009072 () (_ BitVec 1))
(declare-fun o31455320 () (_ BitVec 1))
(declare-fun o22942896 () (_ BitVec 1))
(declare-fun Fresh__0 () (_ BitVec 1))
(declare-fun Fresh__1 () (_ BitVec 1))
(declare-fun Fresh__2 () (_ BitVec 1))
(declare-fun Fresh__3 () (_ BitVec 1))
(declare-fun Fresh__4 () (_ BitVec 1))
(declare-fun Fresh__5 () (_ BitVec 1))
(declare-fun Fresh__6 () (_ BitVec 1))
(declare-fun Fresh__7 () (_ BitVec 1))
(declare-fun Fresh__8 () (_ BitVec 1))
(declare-fun Fresh__9 () (_ BitVec 1))
(declare-fun Fresh__10 () (_ BitVec 1))
(declare-fun Fresh__11 () (_ BitVec 1))
(declare-fun Fresh__12 () (_ BitVec 1))
(declare-fun Fresh__13 () (_ BitVec 1))
(declare-fun Fresh__14 () (_ BitVec 1))
(declare-fun Fresh__15 () (_ BitVec 1))
(declare-fun Fresh__16 () (_ BitVec 1))
(declare-fun Fresh__17 () (_ BitVec 1))
(declare-fun Fresh__18 () (_ BitVec 1))
(declare-fun Fresh__19 () (_ BitVec 1))
(declare-fun Fresh__20 () (_ BitVec 1))
(declare-fun Fresh__21 () (_ BitVec 1))
(declare-fun Fresh__22 () (_ BitVec 1))
(declare-fun Fresh__23 () (_ BitVec 1))
(declare-fun Fresh__24 () (_ BitVec 1))
(declare-fun Fresh__25 () (_ BitVec 1))
(declare-fun Fresh__26 () (_ BitVec 1))
(declare-fun Fresh__27 () (_ BitVec 1))
(declare-fun Fresh__28 () (_ BitVec 1))
(declare-fun Fresh__29 () (_ BitVec 1))
(declare-fun Fresh__30 () (_ BitVec 1))
(declare-fun Fresh__31 () (_ BitVec 1))
(declare-fun Fresh__32 () (_ BitVec 1))
(declare-fun Fresh__33 () (_ BitVec 1))
(declare-fun Fresh__34 () (_ BitVec 1))
(declare-fun Fresh__35 () (_ BitVec 1))
(declare-fun Fresh__36 () (_ BitVec 1))
(declare-fun Fresh__37 () (_ BitVec 1))
(declare-fun Fresh__38 () (_ BitVec 1))
(declare-fun Fresh__39 () (_ BitVec 1))
(declare-fun Fresh__40 () (_ BitVec 1))
(declare-fun Fresh__41 () (_ BitVec 1))
(declare-fun Fresh__42 () (_ BitVec 1))
(declare-fun Fresh__43 () (_ BitVec 1))
(declare-fun Fresh__44 () (_ BitVec 1))
(declare-fun Fresh__45 () (_ BitVec 1))
(declare-fun Fresh__46 () (_ BitVec 1))
(declare-fun Fresh__47 () (_ BitVec 1))
(declare-fun Fresh__48 () (_ BitVec 1))
(declare-fun Fresh__49 () (_ BitVec 1))
(declare-fun Fresh__50 () (_ BitVec 1))
(declare-fun Fresh__51 () (_ BitVec 1))
(declare-fun Fresh__52 () (_ BitVec 1))
(declare-fun Fresh__53 () (_ BitVec 1))
(declare-fun Fresh__54 () (_ BitVec 1))
(declare-fun Fresh__55 () (_ BitVec 1))
(declare-fun Fresh__56 () (_ BitVec 1))
(declare-fun Fresh__57 () (_ BitVec 1))
(declare-fun Fresh__58 () (_ BitVec 1))
(assert (= (= Fresh__0 (_ bv1 1)) (distinct ((_ extract 63 0) (_ bv0 64)) v23200516)))
(assert (= o20455116 Fresh__0))
(assert (= (= Fresh__1 (_ bv1 1)) (bvslt v24296320 ((_ extract 63 0) (_ bv0 64)))))
(assert (= o23803940 Fresh__1))
(assert (= o20163504 (ite (= o23803940 (_ bv1 1)) ((_ extract 31 0) (_ bv18446744073709551615 64)) ((_ extract 31 0) (_ bv0 64)))))
(assert (= (= Fresh__2 (_ bv1 1)) (bvslt o20163504 ((_ extract 31 0) (_ bv0 64)))))
(assert (= o21423032 Fresh__2))
(assert (= (= Fresh__3 (_ bv1 1)) (bvslt v22666712 ((_ extract 63 0) (_ bv0 64)))))
(assert (= o21318956 Fresh__3))
(assert (= (= Fresh__4 (_ bv1 1)) (bvult v22666712 ((_ extract 63 0) (_ bv24 64)))))
(assert (= o24354956 Fresh__4))
(assert (= o21340260 (ite (= o24354956 (_ bv1 1)) ((_ extract 31 0) (_ bv18446744073709551615 64)) ((_ extract 31 0) (_ bv0 64)))))
(assert (= o24250052 (ite (= o21318956 (_ bv1 1)) v21322956 o21340260)))
(assert (= (= Fresh__5 (_ bv1 1)) (bvslt o24250052 ((_ extract 31 0) (_ bv0 64)))))
(assert (= o21334192 Fresh__5))
(assert (= o23596520 (ite (= o21334192 (_ bv1 1)) ((_ extract 31 0) (_ bv18446744073709551615 64)) ((_ extract 31 0) (_ bv0 64)))))
(assert (= o23845624 (ite (= o21423032 (_ bv1 1)) v23834188 o23596520)))
(assert (= (= Fresh__6 (_ bv1 1)) (bvsle ((_ extract 31 0) (_ bv0 64)) o23845624)))
(assert (= o22143988 Fresh__6))
(assert (= (= Fresh__7 (_ bv1 1)) (bvslt v22285684 ((_ extract 63 0) (_ bv0 64)))))
(assert (= o17168448 Fresh__7))
(assert (= (= Fresh__8 (_ bv1 1)) (bvslt v22058424 ((_ extract 63 0) (_ bv0 64)))))
(assert (= o20505232 Fresh__8))
(assert (= (= Fresh__9 (_ bv1 1)) (bvult v22058424 v22983260)))
(assert (= o23036032 Fresh__9))
(assert (= o20674472 (ite (= o23036032 (_ bv1 1)) ((_ extract 31 0) (_ bv18446744073709551615 64)) ((_ extract 31 0) (_ bv0 64)))))
(assert (= o20674500 (ite (= o20505232 (_ bv1 1)) v20837012 o20674472)))
(assert (= (= Fresh__10 (_ bv1 1)) (bvslt o20674500 ((_ extract 31 0) (_ bv0 64)))))
(assert (= o19911180 Fresh__10))
(assert (= (= Fresh__11 (_ bv1 1)) (bvslt v24214652 ((_ extract 31 0) (_ bv0 64)))))
(assert (= o22552664 Fresh__11))
(assert (= o21918908 (ite (= o22552664 (_ bv1 1)) ((_ extract 31 0) (_ bv0 64)) v23067252)))
(assert (= o20379284 (ite (= o19911180 (_ bv1 1)) v19953500 o21918908)))
(assert (= o22106604 (ite (= o17168448 (_ bv1 1)) v19953500 o20379284)))
(assert (= (= Fresh__12 (_ bv1 1)) (distinct o22106604 ((_ extract 31 0) (_ bv0 64)))))
(assert (= o21053560 Fresh__12))
(assert (= (= Fresh__13 (_ bv1 1)) (bvslt v20848168 ((_ extract 63 0) (_ bv0 64)))))
(assert (= o22668392 Fresh__13))
(assert (= (= Fresh__14 (_ bv1 1)) (bvslt v21981048 ((_ extract 63 0) (_ bv0 64)))))
(assert (= o23138544 Fresh__14))
(assert (= (= Fresh__15 (_ bv1 1)) (bvult v21981048 ((_ extract 63 0) (_ bv96 64)))))
(assert (= o22790528 Fresh__15))
(assert (= o23208848 (ite (= o22790528 (_ bv1 1)) ((_ extract 31 0) (_ bv18446744073709551615 64)) ((_ extract 31 0) (_ bv0 64)))))
(assert (= o23208876 (ite (= o23138544 (_ bv1 1)) v23462672 o23208848)))
(assert (= (= Fresh__16 (_ bv1 1)) (bvslt o23208876 ((_ extract 31 0) (_ bv0 64)))))
(assert (= o20277876 Fresh__16))
(assert (= (= Fresh__17 (_ bv1 1)) (bvsle ((_ extract 63 0) (_ bv0 64)) v21981048)))
(assert (= o20853980 Fresh__17))
(assert (= o20854016 (bvand ((_ extract 0 0) (_ bv1 64)) o20853980)))
(assert (= (= Fresh__18 (_ bv1 1)) (bvule ((_ extract 63 0) (_ bv96 64)) v21981048)))
(assert (= o23518988 Fresh__18))
(assert (= o20123672 (bvand o20854016 o23518988)))
(assert (= o20123708 (ite (= o22790528 (_ bv1 1)) o20854016 o20123672)))
(assert (= o20882208 (ite (= o23138544 (_ bv1 1)) ((_ extract 0 0) (_ bv1 64)) o20123708)))
(assert (= (= Fresh__19 (_ bv1 1)) (bvsle ((_ extract 63 0) (_ bv0 64)) v20848168)))
(assert (= o23302080 Fresh__19))
(assert (= o21981012 (bvand ((_ extract 0 0) (_ bv1 64)) o23302080)))
(assert (= o22553628 (bvand o20882208 o21981012)))
(assert (= (= Fresh__20 (_ bv1 1)) (bvsle ((_ extract 31 0) (_ bv0 64)) o23208876)))
(assert (= o21441808 Fresh__20))
(assert (= o22553664 (bvand o22553628 o21441808)))
(assert (= o21223552 (ite (= o20277876 (_ bv1 1)) o22553628 o22553664)))
(assert (= o23083716 (ite (= o22668392 (_ bv1 1)) ((_ extract 0 0) (_ bv1 64)) o21223552)))
(assert (= (= Fresh__21 (_ bv1 1)) (bvsle ((_ extract 31 0) (_ bv0 64)) v19948520)))
(assert (= o21132036 Fresh__21))
(assert (= (= Fresh__22 (_ bv1 1)) (distinct v20577344 ((_ extract 31 0) (_ bv0 64)))))
(assert (= o20185132 Fresh__22))
(assert (= o20185176 (bvand ((_ extract 0 0) (_ bv1 64)) o20185132)))
(assert (= (= Fresh__23 (_ bv1 1)) (distinct ((_ extract 31 0) (_ bv0 64)) v23031068)))
(assert (= o19174276 Fresh__23))
(assert (= o20033884 (bvand o20185176 o19174276)))
(assert (= o23079448 (bvand o21132036 o20033884)))
(assert (= o23079484 (bvand o23079448 ((_ extract 0 0) (_ bv1 64)))))
(assert (= (= Fresh__24 (_ bv1 1)) (distinct ((_ extract 31 0) (_ bv18446744073709551615 64)) v22988276)))
(assert (= o22360324 Fresh__24))
(assert (= o22360368 ((_ zero_extend 7) o22360324)))
(assert (= (= Fresh__25 (_ bv1 1)) (distinct o22360368 ((_ extract 7 0) (_ bv0 64)))))
(assert (= o21249696 Fresh__25))
(assert (= o21249724 (bvand o23079484 o21249696)))
(assert (= o19996588 (bvand o23083716 o21249724)))
(assert (= (= Fresh__26 (_ bv1 1)) (= v22686296 ((_ extract 31 0) (_ bv0 64)))))
(assert (= o22259444 Fresh__26))
(assert (= o19594344 (ite (= o22259444 (_ bv1 1)) ((_ extract 31 0) (_ bv0 64)) ((_ extract 31 0) (_ bv18446744073709551615 64)))))
(assert (= o19594380 (ite (= o20277876 (_ bv1 1)) v23012700 o19594344)))
(assert (= o21270652 (ite (= o22668392 (_ bv1 1)) v23012700 o19594380)))
(assert (= (= Fresh__27 (_ bv1 1)) (bvsle ((_ extract 31 0) (_ bv0 64)) o21270652)))
(assert (= o21270696 Fresh__27))
(assert (= o20518752 (bvand o19996588 o21270696)))
(assert (= (= Fresh__28 (_ bv1 1)) (bvslt v23701016 ((_ extract 63 0) (_ bv0 64)))))
(assert (= o20210588 Fresh__28))
(assert (= (= Fresh__29 (_ bv1 1)) (bvslt v23736016 ((_ extract 63 0) (_ bv0 64)))))
(assert (= o23295188 Fresh__29))
(assert (= (= Fresh__30 (_ bv1 1)) (bvult v23736016 v23855288)))
(assert (= o21225436 Fresh__30))
(assert (= o23861964 (ite (= o21225436 (_ bv1 1)) ((_ extract 31 0) (_ bv18446744073709551615 64)) ((_ extract 31 0) (_ bv0 64)))))
(assert (= o21441192 (ite (= o23295188 (_ bv1 1)) v24215300 o23861964)))
(assert (= (= Fresh__31 (_ bv1 1)) (bvslt o21441192 ((_ extract 31 0) (_ bv0 64)))))
(assert (= o22106952 Fresh__31))
(assert (= o21438056 (bvshl v23855288 (concat (_ bv0 56) ((_ extract 7 0) (_ bv3 64))))))
(assert (= (= Fresh__32 (_ bv1 1)) (bvule o21438056 ((_ extract 63 0) (_ bv0 64)))))
(assert (= o22345884 Fresh__32))
(assert (= o22940872 (bvand o22345884 ((_ extract 0 0) (_ bv1 64)))))
(assert (= o22468824 (ite (= v30925832 (_ bv1 1)) o22940872 ((_ extract 0 0) (_ bv1 64)))))
(assert (= (= Fresh__33 (_ bv1 1)) (bvsle ((_ extract 63 0) (_ bv0 64)) v23736016)))
(assert (= o21223452 Fresh__33))
(assert (= o22167356 (bvand ((_ extract 0 0) (_ bv1 64)) o21223452)))
(assert (= (= Fresh__34 (_ bv1 1)) (bvule v23855288 v23736016)))
(assert (= o21436264 Fresh__34))
(assert (= o22092048 (bvand o22167356 o21436264)))
(assert (= o21440072 (ite (= o21225436 (_ bv1 1)) o22167356 o22092048)))
(assert (= o22673292 (ite (= o23295188 (_ bv1 1)) ((_ extract 0 0) (_ bv1 64)) o21440072)))
(assert (= (= Fresh__35 (_ bv1 1)) (distinct ((_ extract 31 0) (_ bv0 64)) v23833788)))
(assert (= o22180784 Fresh__35))
(assert (= o20034852 (bvand ((_ extract 0 0) (_ bv1 64)) o22180784)))
(assert (= o30059208 (ite (= v30925832 (_ bv1 1)) o20034852 v30925832)))
(assert (= (= Fresh__36 (_ bv1 1)) (bvsle ((_ extract 63 0) (_ bv0 64)) v23701016)))
(assert (= o21434244 Fresh__36))
(assert (= o21228100 (bvand ((_ extract 0 0) (_ bv1 64)) o21434244)))
(assert (= o33634652 (bvand o30059208 o21228100)))
(assert (= o22056024 (bvand o22345884 o33634652)))
(assert (= o30198808 (bvand o22673292 o22056024)))
(assert (= o30230328 (bvand o22106952 o30198808)))
(assert (= o25889176 (bvand o22468824 o30230328)))
(assert (= (= Fresh__37 (_ bv1 1)) (bvslt v24228872 ((_ extract 31 0) (_ bv0 64)))))
(assert (= o21223820 Fresh__37))
(assert (= (= Fresh__38 (_ bv1 1)) (bvsle ((_ extract 31 0) (_ bv0 64)) o21441192)))
(assert (= o24094932 Fresh__38))
(assert (= o22291156 (bvand o24094932 o30198808)))
(assert (= o27419284 (bvand o21223820 o22291156)))
(assert (= o28478640 (bvand o27419284 o22468824)))
(assert (= (= Fresh__39 (_ bv1 1)) (bvsle ((_ extract 31 0) (_ bv0 64)) v24228872)))
(assert (= o22224628 Fresh__39))
(assert (= o31390820 (bvand o22224628 o22291156)))
(assert (= o23119084 (ite (= o21223820 (_ bv1 1)) o28478640 o31390820)))
(assert (= o30017548 (ite (= o22106952 (_ bv1 1)) o25889176 o23119084)))
(assert (= o30033688 (ite (= o20210588 (_ bv1 1)) ((_ extract 0 0) (_ bv1 64)) o30017548)))
(assert (= o29914216 (bvand o20518752 o30033688)))
(assert (= o24685204 (bvand o21053560 o29914216)))
(assert (= (= Fresh__40 (_ bv1 1)) (bvult ((_ extract 31 0) (_ bv0 64)) v23031068)))
(assert (= o22016100 Fresh__40))
(assert (= o23960484 (bvand o24685204 o22016100)))
(assert (= (= Fresh__41 (_ bv1 1)) (bvule v20573752 v24498092)))
(assert (= o24390756 Fresh__41))
(assert (= o26295080 (bvand o23960484 o24390756)))
(assert (= (= Fresh__42 (_ bv1 1)) (bvule v24498092 v22150540)))
(assert (= o20349076 Fresh__42))
(assert (= o23158364 (bvand o26295080 o20349076)))
(assert (= (= Fresh__43 (_ bv1 1)) (bvsle ((_ extract 63 0) (_ bv0 64)) v24296320)))
(assert (= o22045960 Fresh__43))
(assert (= o22998024 (bvand ((_ extract 0 0) (_ bv1 64)) o22045960)))
(assert (= o20154296 (ite (= o23803940 (_ bv1 1)) ((_ extract 0 0) (_ bv1 64)) o22998024)))
(assert (= o21924240 (bvand o23158364 o20154296)))
(assert (= (= Fresh__44 (_ bv1 1)) (bvsle ((_ extract 63 0) (_ bv0 64)) v22666712)))
(assert (= o24354996 Fresh__44))
(assert (= o23513732 (bvand ((_ extract 0 0) (_ bv1 64)) o24354996)))
(assert (= (= Fresh__45 (_ bv1 1)) (bvule ((_ extract 63 0) (_ bv24 64)) v22666712)))
(assert (= o22158304 Fresh__45))
(assert (= o24466592 (bvand o23513732 o22158304)))
(assert (= o24072084 (ite (= o24354956 (_ bv1 1)) o23513732 o24466592)))
(assert (= o22088212 (ite (= o21318956 (_ bv1 1)) ((_ extract 0 0) (_ bv1 64)) o24072084)))
(assert (= (= Fresh__46 (_ bv1 1)) (bvsle ((_ extract 31 0) (_ bv0 64)) o20163504)))
(assert (= o24251796 Fresh__46))
(assert (= o27231772 (bvand o24251796 o21924240)))
(assert (= o23777404 (bvand o22088212 o27231772)))
(assert (= (= Fresh__47 (_ bv1 1)) (bvsle ((_ extract 31 0) (_ bv0 64)) o24250052)))
(assert (= o23507756 Fresh__47))
(assert (= o31144592 (bvand o23777404 o23507756)))
(assert (= o25071028 (ite (= o21334192 (_ bv1 1)) o23777404 o31144592)))
(assert (= o23452484 (ite (= o21423032 (_ bv1 1)) o21924240 o25071028)))
(assert (= o26204256 (bvand o22143988 o23452484)))
(assert (= o29714144 (bvand o20455116 o26204256)))
(assert (= o22718708 ((_ sign_extend 32) v22252560)))
(assert (= o24494348 (bvadd o22718708 v23200516)))
(assert (= o21336804 (bvadd ((_ extract 63 0) (_ bv18446744073709551615 64)) o24494348)))
(assert (= o21908568 (bvudiv o21336804 o22718708)))
(assert (= (= Fresh__48 (_ bv1 1)) (bvult ((_ extract 63 0) (_ bv0 64)) o21908568)))
(assert (= o23048432 Fresh__48))
(assert (= o24685164 (bvand o29714144 o23048432)))
(assert (= o24634804 (ite (= o22552664 (_ bv1 1)) ((_ extract 7 0) (_ bv0 64)) v23043816)))
(assert (= o22340028 ((_ sign_extend 56) o24634804)))
(assert (= o25191416 (ite (= o19911180 (_ bv1 1)) v19958036 o22340028)))
(assert (= o24833884 (ite (= o17168448 (_ bv1 1)) v19958036 o25191416)))
(assert (= o22561732 (ite (= o22552664 (_ bv1 1)) ((_ extract 7 0) (_ bv0 64)) v22561692)))
(assert (= o22051184 ((_ sign_extend 24) o22561732)))
(assert (= o21055548 (ite (= o19911180 (_ bv1 1)) v23805616 o22051184)))
(assert (= o21055568 (ite (= o17168448 (_ bv1 1)) v23805616 o21055548)))
(assert (= o20849404 ((_ sign_extend 32) o21055568)))
(assert (= o21545504 (bvsrem v21541048 o20849404)))
(assert (= o25184428 (bvsub v21541048 o21545504)))
(assert (= (= Fresh__49 (_ bv1 1)) (bvsle o24833884 o25184428)))
(assert (= o25114320 Fresh__49))
(assert (= o24937932 (bvand ((_ extract 0 0) (_ bv1 64)) o25114320)))
(assert (= o24307912 (ite (= o22552664 (_ bv1 1)) ((_ extract 7 0) (_ bv0 64)) v29275800)))
(assert (= o21220980 ((_ sign_extend 56) o24307912)))
(assert (= o27254992 (ite (= o19911180 (_ bv1 1)) v29276184 o21220980)))
(assert (= o22637652 (ite (= o17168448 (_ bv1 1)) v29276184 o27254992)))
(assert (= (= Fresh__50 (_ bv1 1)) (bvslt o25184428 o22637652)))
(assert (= o23337704 Fresh__50))
(assert (= o22643092 (bvand o24937932 o23337704)))
(assert (= o23859920 ((_ extract 7 0) v23859780)))
(assert (= o23999884 (ite (= o22552664 (_ bv1 1)) ((_ extract 7 0) (_ bv0 64)) v23859640)))
(assert (= o23859956 (ite (= o19911180 (_ bv1 1)) o23859920 o23999884)))
(assert (= o23861468 (ite (= o17168448 (_ bv1 1)) o23859920 o23859956)))
(assert (= (= Fresh__51 (_ bv1 1)) (= o23861468 ((_ extract 7 0) (_ bv0 64)))))
(assert (= o31312000 Fresh__51))
(assert (= o20037236 (bvsub o25184428 o24833884)))
(assert (= o24148392 (ite (= o22552664 (_ bv1 1)) ((_ extract 7 0) (_ bv0 64)) v30624364)))
(assert (= o29482872 ((_ sign_extend 56) o24148392)))
(assert (= o30235128 (ite (= o19911180 (_ bv1 1)) v30351624 o29482872)))
(assert (= o27813500 (ite (= o17168448 (_ bv1 1)) v30351624 o30235128)))
(assert (= o20402920 (bvudiv o20037236 o27813500)))
(assert (= o20918492 (ite (= o22552664 (_ bv1 1)) ((_ extract 7 0) (_ bv0 64)) v21233384)))
(assert (= o20506492 ((_ sign_extend 24) o20918492)))
(assert (= o17040112 (ite (= o19911180 (_ bv1 1)) v24205336 o20506492)))
(assert (= o19617944 (ite (= o17168448 (_ bv1 1)) v24205336 o17040112)))
(assert (= o22653056 ((_ sign_extend 32) o19617944)))
(assert (= (= Fresh__52 (_ bv1 1)) (bvult o20402920 o22653056)))
(assert (= o29060648 Fresh__52))
(assert (= o26739328 (bvand o22643092 o29060648)))
(assert (= o27171108 (bvand o31312000 o26739328)))
(assert (= (= Fresh__53 (_ bv1 1)) (distinct ((_ extract 31 0) (_ bv0 64)) v21170972)))
(assert (= o21436080 Fresh__53))
(assert (= o25321656 (bvand ((_ extract 0 0) (_ bv1 64)) o21436080)))
(assert (= o23125384 (ite (= v34826148 (_ bv1 1)) o25321656 v34826148)))
(assert (= o24152204 (bvand o27171108 o23125384)))
(assert (= o22661048 (ite (= o22552664 (_ bv1 1)) ((_ extract 31 0) (_ bv0 64)) v29660432)))
(assert (= o25152128 (ite (= o19911180 (_ bv1 1)) v29302328 o22661048)))
(assert (= o25152060 (ite (= o17168448 (_ bv1 1)) v29302328 o25152128)))
(assert (= (= Fresh__54 (_ bv1 1)) (distinct o25152060 ((_ extract 31 0) (_ bv0 64)))))
(assert (= o25152032 Fresh__54))
(assert (= (= Fresh__55 (_ bv1 1)) (=> (= o24152204 (_ bv1 1)) (= o25152032 (_ bv1 1)))))
(assert (= o20009072 Fresh__55))
(assert (= (= Fresh__56 (_ bv1 1)) (=> (= o22643092 (_ bv1 1)) (= o20009072 (_ bv1 1)))))
(assert (= o31455320 Fresh__56))
(assert (= (= Fresh__57 (_ bv1 1)) (=> (= o24685164 (_ bv1 1)) (= o31455320 (_ bv1 1)))))
(assert (= o22942896 Fresh__57))
(assert (= (= Fresh__58 (_ bv1 1)) (= ((_ extract 0 0) (_ bv0 64)) o22942896)))
(assert (= (_ bv1 1) Fresh__58))
(check-sat)
(exit)
